submitit INFO (2023-04-30 19:21:35,930) - Starting with JobEnvironment(job_id=27532, hostname=cpunode2, local_rank=2(5), node=0(1), global_rank=2(5))
submitit INFO (2023-04-30 19:21:35,930) - Loading pickle: /h/30/pashootan/Matrix-Mult-CP/src/../logs/2x2x2_6_Apr30_19:21:33/27532_submitted.pkl
 ! --------------------------------------------------- CP Optimizer 22.1.1.0 --
 ! Satisfiability problem - 72 variables, 117 constraints
 ! TimeLimit            = 7200
 ! Workers              = 8
 ! LogPeriod            = 10000000
 ! RandomSeed           = 9764
 ! Initial process time : 0.02s (0.02s extraction + 0.00s propagation)
 !  . Log search space  : 107.1 (before), 107.1 (after)
 !  . Memory usage      : 495.1 kB (before), 495.1 kB (after)
 ! Using parallel search with 8 workers.
 ! ----------------------------------------------------------------------------
 !               Branches  Non-fixed    W       Branch decision
                   10000k          6    2   F     0 != V4_0
                   10000k          6    1         0 != U3_1
                   10000k          6    4         0  = W4_0
                   10000k          6    5   F     1 != W0_1
                   10000k          6    6         0 != V5_0
                   10000k          6    8   F    -1 != U2_2
                   10000k          7    3   F    -1  = W3_1
                   10000k          8    7   F    -1 != V4_0
                   20000k          6    2         1  = V1_0
                   20000k          6    1         0  = W5_0
                   20000k          5    4         1 != W2_1
                   20000k          6    5   F     0  = U5_2
                   20000k          6    6        -1  = V1_1
                   20000k          6    8   F    -1 != W4_2
                   20000k          7    3        -1  = W0_2
                   20000k          8    7   F    -1 != V3_1
                   30000k          6    4         0  = U1_1
                   30000k          6    1   F    -1 != U3_2
                   30000k          6    2   F     0  = W4_2
                   30000k          6    5   F     0 != V3_0
 ! Time = 284.09s, Average fail depth = 18, Memory usage = 145.9 MB
 !               Branches  Non-fixed    W       Branch decision
                   30000k          6    6         0  = U2_2
                   30000k          6    8   F    -1 != W5_0
                   30000k          8    3        -1 != W3_1
                   30000k          7    7        -1  = V0_0
                   40000k          6    4        -1 != W4_2
                   40000k          6    2   F     1  = V5_0
                   40000k          6    1   F     1 != V4_2
                   40000k          6    5         0  = V5_2
                   40000k          6    6         0 != U1_2
                   40000k          6    8   F        -
                   40000k          9    3   F    -1 != V0_1
                   40000k          8    7   F     1 != V2_0
 ! ----------------------------------------------------------------------------
 ! Search completed, model has no solution.
 ! ----------------------------------------------------------------------------
 ! Number of branches     : 335100614
 ! Number of fails        : 165332119
 ! Total memory usage     : 210.4 MB (210.4 MB CP Optimizer + 0.0 MB Concert)
 ! Time spent in solve    : 397.43s (397.42s engine + 0.02s extraction)
 ! Search speed (br. / s) : 843211.3
 ! ----------------------------------------------------------------------------
Infeasible
Saving stats to: /h/30/pashootan/Matrix-Mult-CP/logs/2x2x2_6_Apr30_19:21:33/27532_2_stats.csv
submitit INFO (2023-04-30 19:28:13,743) - Job completed successfully
